data/solutions/recovery/wellformed/intermediate/binding/wellformed_intermediate_instance27/12.sol
Elapsed time: 0.05
Upper bound: 9274.0
Planning weighted value: 37750671.0
C[0]=9274.0
C[1]=9114.0
C[2]=9061.0
C[3]=9021.0
C[4]=9003.0
C[5]=8982.0
C[6]=8940.0
C[7]=8933.0
C[8]=8679.0
C[9]=8580.0
C[10]=8521.0
C[11]=8248.0
y[0]=8
y[1]=9
y[2]=0
y[3]=10
y[4]=11
y[5]=2
y[6]=2
y[7]=10
y[8]=8
y[9]=8
y[10]=2
y[11]=8
y[12]=6
y[13]=5
y[14]=3
y[15]=3
y[16]=2
y[17]=7
y[18]=0
y[19]=0
y[20]=9
y[21]=8
y[22]=11
y[23]=8
y[24]=2
y[25]=11
y[26]=6
y[27]=0
y[28]=4
y[29]=10
y[30]=6
y[31]=10
y[32]=7
y[33]=4
y[34]=1
y[35]=6
y[36]=8
y[37]=4
y[38]=2
y[39]=5
y[40]=0
y[41]=6
y[42]=10
y[43]=8
y[44]=11
y[45]=0
y[46]=11
y[47]=5
y[48]=11
y[49]=8
y[50]=8
y[51]=9
y[52]=5
y[53]=0
y[54]=11
y[55]=10
y[56]=10
y[57]=2
y[58]=4
y[59]=10
y[60]=7
y[61]=3
y[62]=9
y[63]=2
y[64]=5
y[65]=8
y[66]=3
y[67]=3
y[68]=8
y[69]=2
y[70]=8
y[71]=0
y[72]=1
y[73]=8
y[74]=9
y[75]=0
y[76]=8
y[77]=7
y[78]=8
y[79]=8
y[80]=6
y[81]=10
y[82]=6
y[83]=7
y[84]=4
y[85]=0
y[86]=6
y[87]=10
y[88]=2
y[89]=10
y[90]=1
y[91]=0
y[92]=11
y[93]=9
y[94]=1
y[95]=11
y[96]=1
y[97]=4
y[98]=8
y[99]=9
y[100]=10
y[101]=11
y[102]=10
