data/solutions/recovery/wellformed/intermediate/binding/wellformed_intermediate_instance27/12.log

Log started (V12.6.3.0) Fri Apr 20 20:41:01 2018

New value for default parallel thread count: 1

Problem '/tmp/tmpf8KFCu.pyomo.lp' read.
Read time = 0.02 sec. (1.59 ticks)

Problem name         : /tmp/tmpf8KFCu.pyomo.lp
Objective sense      : Minimize
Variables            :    1250  [Nneg: 1,  Binary: 1236,  General Integer: 13]
Objective nonzeros   :       1
Linear constraints   :     231  [Less: 115,  Equal: 116]
  Nonzeros           :  115725
  RHS nonzeros       :     104

Variables            : Min LB: 0.000000         Max UB: 1.000000       
Objective nonzeros   : Min   : 1.000000         Max   : 1.000000       
Linear constraints   :
  Nonzeros           : Min   : 1.000000         Max   : 1992.000       
  RHS nonzeros       : Min   : 1.000000         Max   : 1.000000       
Tried aggregator 2 times.
MIP Presolve eliminated 204 rows and 1201 columns.
MIP Presolve modified 8 coefficients.
Aggregator did 12 substitutions.
Reduced MIP has 15 rows, 37 columns, and 84 nonzeros.
Reduced MIP has 36 binaries, 1 generals, 0 SOSs, and 0 indicators.
Presolve time = 0.00 sec. (6.65 ticks)
Found incumbent of value 13018.000000 after 0.01 sec. (9.38 ticks)
Probing time = 0.00 sec. (0.05 ticks)
Tried aggregator 1 time.
Reduced MIP has 15 rows, 37 columns, and 84 nonzeros.
Reduced MIP has 36 binaries, 1 generals, 0 SOSs, and 0 indicators.
Presolve time = 0.00 sec. (0.06 ticks)
Probing time = 0.00 sec. (0.05 ticks)
Clique table members: 3.
MIP emphasis: balance optimality and feasibility.
MIP search method: dynamic search.
Parallel mode: none, using 1 thread.
Root relaxation solution time = 0.00 sec. (0.04 ticks)

        Nodes                                         Cuts/
   Node  Left     Objective  IInf  Best Integer    Best Bound    ItCnt     Gap

*     0+    0                        13018.0000     9274.0000            28.76%
      0     0     9274.0000     9    13018.0000     9274.0000       14   28.76%
*     0+    0                         9274.0000     9274.0000             0.00%
      0     0        cutoff           9274.0000     9274.0000       14    0.00%
Elapsed time = 0.01 sec. (9.70 ticks, tree = 0.01 MB, solutions = 2)

Root node processing (before b&c):
  Real time             =    0.01 sec. (9.74 ticks)
Sequential b&c:
  Real time             =    0.00 sec. (0.00 ticks)
                          ------------
Total (root+branch&cut) =    0.01 sec. (9.74 ticks)

Solution pool: 2 solutions saved.

MIP - Integer optimal solution:  Objective =  9.2740000000e+03
Solution time =    0.01 sec.  Iterations = 14  Nodes = 0
Deterministic time = 9.75 ticks  (1140.48 ticks/sec)


Incumbent solution written to file '/tmp/tmpy8cbAX.cplex.sol'.
